(set-logic QF_S)
(declare-fun var0 () String)
(declare-fun var1 () String)
(declare-fun var2 () String)
(declare-fun var3 () String)
(declare-fun var4 () Int)
(assert (str.prefixof var0 var1))
(assert (str.suffixof var2 var3))
(assert (str.in.re var3 re.allchar))
(assert (> (str.indexof "+J0" var0 var4) (str.len "dfk5K,$j8u")))
(check-sat)